<?xml version = "1.0" encoding="UTF-8" standalone="yes"?>
<CPLEXSolution version="1.2">
 <header
   problemName="1_rho__E_5_2_2"
   solutionName="incumbent"
   solutionIndex="-1"
   objectiveValue="11.999999999999995"
   solutionTypeValue="3"
   solutionTypeString="primal"
   solutionStatusValue="101"
   solutionStatusString="integer optimal solution"
   solutionMethodString="mip"
   primalFeasible="1"
   dualFeasible="1"
   MIPNodes="0"
   MIPIterations="13"
   writeLevel="1"/>
 <quality
   epInt="1.0000000000000001e-05"
   epRHS="9.9999999999999995e-07"
   maxIntInfeas="5.3290705182007514e-15"
   maxPrimalInfeas="3.1086244689504383e-15"
   maxX="11.999999999999995"
   maxSlack="1.9999999999999991"/>
 <linearConstraints>
  <constraint name="R_def" index="0" slack="3.1086244689504383e-15"/>
  <constraint name="val_cible" index="1" slack="0"/>
  <constraint name="BkI_24_0" index="2" slack="1.7763568394002505e-15"/>
  <constraint name="BkI_24_1" index="3" slack="-8.8817841970012523e-16"/>
  <constraint name="BkI_20_0" index="4" slack="1.7763568394002505e-15"/>
  <constraint name="BkI_20_1" index="5" slack="-8.8817841970012523e-16"/>
  <constraint name="BkI_12_0" index="6" slack="1.7763568394002505e-15"/>
  <constraint name="BkI_12_1" index="7" slack="-8.8817841970012523e-16"/>
  <constraint name="BkI_18_0" index="8" slack="1.7763568394002505e-15"/>
  <constraint name="BkI_18_1" index="9" slack="-8.8817841970012523e-16"/>
  <constraint name="BkI_10_0" index="10" slack="1.7763568394002505e-15"/>
  <constraint name="BkI_10_1" index="11" slack="-8.8817841970012523e-16"/>
  <constraint name="BkI_6_0" index="12" slack="1.7763568394002505e-15"/>
  <constraint name="BkI_6_1" index="13" slack="-8.8817841970012523e-16"/>
  <constraint name="BkI_17_0" index="14" slack="-8.8817841970012523e-16"/>
  <constraint name="BkI_17_1" index="15" slack="1.7763568394002505e-15"/>
  <constraint name="BkI_9_0" index="16" slack="-8.8817841970012523e-16"/>
  <constraint name="BkI_9_1" index="17" slack="1.7763568394002505e-15"/>
  <constraint name="BkI_5_0" index="18" slack="-8.8817841970012523e-16"/>
  <constraint name="BkI_5_1" index="19" slack="1.7763568394002505e-15"/>
  <constraint name="BkI_3_0" index="20" slack="-8.8817841970012523e-16"/>
  <constraint name="BkI_3_1" index="21" slack="1.7763568394002505e-15"/>
  <constraint name="QstargeqQ1" index="22" slack="-1.9999999999999991"/>
  <constraint name="QstargeqQ2" index="23" slack="-1.9999999999999991"/>
  <constraint name="QstargeqQ3" index="24" slack="-1.0000000000000004"/>
  <constraint name="QstargeqQ4" index="25" slack="-1.9999999999999991"/>
  <constraint name="QstargeqQ5" index="26" slack="-1.0000000000000004"/>
  <constraint name="QstargeqQ6" index="27" slack="-0.99999999999999911"/>
  <constraint name="QstargeqQ7" index="28" slack="-0.99999999999999911"/>
  <constraint name="QstargeqQ8" index="29" slack="-1.9999999999999991"/>
  <constraint name="QstargeqQ9" index="30" slack="-1.0000000000000004"/>
  <constraint name="QstargeqQ10" index="31" slack="-0.99999999999999911"/>
  <constraint name="QstargeqQ11" index="32" slack="-0.99999999999999911"/>
  <constraint name="QstargeqQ12" index="33" slack="-0.99999999999999911"/>
  <constraint name="QstargeqQ13" index="34" slack="-0.99999999999999911"/>
  <constraint name="QstargeqQ14" index="35" slack="-1.0000000000000004"/>
  <constraint name="QstargeqQ15" index="36" slack="-1.9999999999999991"/>
 </linearConstraints>
 <variables>
  <variable name="R" index="0" value="11.999999999999995"/>
  <variable name="Q00000" index="1" value="1.9999999999999991"/>
  <variable name="Q00001" index="2" value="0"/>
  <variable name="Q00010" index="3" value="-0"/>
  <variable name="Q00011" index="4" value="0.99999999999999867"/>
  <variable name="Q00100" index="5" value="-0"/>
  <variable name="Q00101" index="6" value="0.99999999999999867"/>
  <variable name="Q00110" index="7" value="1"/>
  <variable name="Q00111" index="8" value="1"/>
  <variable name="Q01000" index="9" value="-0"/>
  <variable name="Q01001" index="10" value="0.99999999999999867"/>
  <variable name="Q01010" index="11" value="1"/>
  <variable name="Q01011" index="12" value="1"/>
  <variable name="Q01100" index="13" value="1"/>
  <variable name="Q01101" index="14" value="1"/>
  <variable name="Q01110" index="15" value="0.99999999999999867"/>
  <variable name="Q01111" index="16" value="-0"/>
 </variables>
 <objectiveValues>
  <objective index="0" name="" value="11.999999999999995"/>
 </objectiveValues>
</CPLEXSolution>
